results_rootrelaxation/bin018_080_005.srr.sol
solution status: optimal solution found
objective value:                     19.3738330073358
_var2762_                          0.0104041475744116 	(obj:1)
_var2860_                          0.0246037103731176 	(obj:1)
_var2901_                           0.217268624878937 	(obj:0)
_var2904_                           0.187418036386264 	(obj:1)
_var2905_                          0.0420508868814333 	(obj:1)
_var3064_                          0.0797913586622664 	(obj:0)
_var3078_                          0.0753412044168639 	(obj:0)
_var3117_                           0.109201195397149 	(obj:1)
_var3141_                          0.0719674539106781 	(obj:0)
_var3152_                          0.0166152845446218 	(obj:2)
_var3194_                            0.34702534461138 	(obj:1)
_var3205_                           0.378863077670246 	(obj:1)
_var3233_                           0.258921870943133 	(obj:0)
_var3241_                          0.0494666533597487 	(obj:2)
_var3252_                          0.0192376116411124 	(obj:0)
_var3254_                           0.146861081182748 	(obj:3)
_var3258_                          0.0418359454863377 	(obj:2)
_var3268_                           0.140885221848518 	(obj:0)
_var3284_                           0.105325404164673 	(obj:1)
_var3289_                          0.0118041811747875 	(obj:1)
_var3304_                           0.467826391715566 	(obj:0)
_var3305_                           0.156315181032044 	(obj:1)
_var3306_                           0.001234538698306 	(obj:2)
_var3309_                           0.128748586700795 	(obj:1)
_var3310_                           0.096225914094688 	(obj:2)
_var3313_                          0.0741395888378512 	(obj:1)
_var3314_                          0.0971954732016713 	(obj:2)
_var3322_                          0.0752479337917107 	(obj:3)
_var3330_                         0.00907922664093287 	(obj:1)
_var3342_                           0.158919368738549 	(obj:1)
_var3344_                          0.0566208848784197 	(obj:2)
_var3358_                           0.119922223039244 	(obj:0)
_var3361_                           0.113264055809974 	(obj:3)
_var3372_                           0.288287193397676 	(obj:0)
_var3377_                           0.170095297291279 	(obj:1)
_var3384_                          0.0979904560773999 	(obj:2)
_var3385_                           0.162583397187595 	(obj:1)
_var3388_                           0.220441091607577 	(obj:1)
_var3400_                           0.120890817522144 	(obj:1)
_var3409_                          0.0522099996495374 	(obj:0)
_var3421_                          0.0388597409531292 	(obj:1)
_var3423_                          0.0605456306517591 	(obj:1)
_var3424_                          0.0211002866639546 	(obj:4)
_var3426_                          0.0201330843275058 	(obj:1)
_var3427_                          0.0126980056889983 	(obj:2)
_var3429_                           0.101616708388748 	(obj:4)
_var3432_                           0.209932726275455 	(obj:1)
_var3436_                          0.0983943828409092 	(obj:2)
_var3439_                           0.198504788393533 	(obj:1)
_var3442_                           0.155423243058772 	(obj:0)
_var3445_                           0.260319666272982 	(obj:0)
_var3446_                          0.0331977023422984 	(obj:2)
_var3448_                           0.212154874695337 	(obj:1)
_var3450_                           0.218209896002879 	(obj:1)
_var3452_                          0.0537671166135095 	(obj:1)
_var3456_                           0.256354687109885 	(obj:0)
_var3459_                            0.41552706628875 	(obj:1)
_var3460_                          0.0311761526318415 	(obj:0)
_var3467_                           0.186682668271582 	(obj:1)
_var3469_                          0.0622252576476674 	(obj:1)
_var3471_                          0.0103467455244944 	(obj:0)
_var3472_                           0.164039380710938 	(obj:1)
_var3484_                          0.0403276029815744 	(obj:2)
_var3486_                          0.0487738240504176 	(obj:2)
_var3488_                           0.299787541179499 	(obj:0)
_var3493_                           0.237027960051154 	(obj:2)
_var3498_                            0.37836459858516 	(obj:1)
_var3501_                           0.270575071106708 	(obj:2)
_var3503_                           0.010159112768104 	(obj:1)
_var3507_                         0.00130097794980351 	(obj:1)
_var3510_                          0.0244630758669215 	(obj:1)
_var3511_                           0.397695462681626 	(obj:0)
_var3512_                           0.373889940071051 	(obj:1)
_var3520_                           0.148587416052187 	(obj:2)
_var3523_                           0.150104233248693 	(obj:1)
_var3524_                           0.144678804720156 	(obj:1)
_var3526_                           0.242554241671122 	(obj:2)
_var3527_                          0.0487753271190919 	(obj:1)
_var3529_                            0.17508918315133 	(obj:0)
_var3532_                          0.0410893521439953 	(obj:2)
_var3533_                          0.0254259427777179 	(obj:2)
_var3534_                          0.0118221201219507 	(obj:1)
_var3536_                           0.237771350668611 	(obj:2)
_var3537_                          0.0369987758021366 	(obj:0)
_var3538_                          0.0257666264734918 	(obj:2)
_var3540_                          0.0216275058399091 	(obj:0)
_var3541_                          0.0564460706842214 	(obj:0)
_var3546_                          0.0715205057973379 	(obj:1)
_var3548_                           0.152524763815303 	(obj:3)
_var3550_                           0.294826319539099 	(obj:1)
_var3551_                           0.047264269318543 	(obj:1)
_var3553_                           0.247432107625566 	(obj:1)
_var3555_                           0.281646503135228 	(obj:2)
_var3556_                          0.0451939222900246 	(obj:0)
_var3559_                         0.00653912614142853 	(obj:1)
_var3567_                          0.0181300988842477 	(obj:2)
_var3568_                           0.191801524300654 	(obj:1)
_var3569_                          0.0782577529427361 	(obj:2)
_var3570_                          0.0706006412734312 	(obj:1)
_var3571_                           0.255209089491773 	(obj:1)
_var3573_                           0.041358722278979 	(obj:1)
_var3574_                           0.129926512525334 	(obj:1)
_var3575_                          0.0420508868814333 	(obj:1)
_var3577_                           0.212106335391503 	(obj:2)
_var3579_                          0.0316786641854239 	(obj:2)
_var3587_                           0.098311425967282 	(obj:1)
_var3589_                           0.239065793619197 	(obj:2)
_var3590_                          0.0741395888378504 	(obj:1)
_var3591_                           0.039135406320331 	(obj:1)
_var3592_                          0.0540065045103447 	(obj:2)
_var3594_                          0.0642894937424975 	(obj:1)
_var3596_                         0.00758448700839665 	(obj:3)
_var3597_                           0.317283799494479 	(obj:1)
_var3598_                           0.165210685350743 	(obj:2)
_var3603_                          0.0949073438102629 	(obj:2)
_var3607_                          0.0500478455891532 	(obj:3)
_var3612_                          0.0287221565095231 	(obj:1)
_var3613_                          0.0501551439304243 	(obj:2)
_var3614_                          0.0668843130117996 	(obj:1)
_var3615_                          0.0510886823970287 	(obj:1)
_var3616_                           0.323305082910248 	(obj:1)
_var3617_                          0.0626630624074564 	(obj:1)
_var3619_                          0.0384696132582997 	(obj:1)
_var3622_                          0.0675946539967922 	(obj:3)
_var3623_                          0.0953404601678187 	(obj:2)
_var3625_                          0.0934891163032444 	(obj:2)
_var3631_                            0.05766285309582 	(obj:3)
_var3633_                          0.0870887947724455 	(obj:2)
_var3634_                          0.0218496746919474 	(obj:1)
_var3636_                          0.0115571561363423 	(obj:3)
_var3638_                           0.118973524037643 	(obj:2)
_var3639_                           0.137865786177667 	(obj:1)
_var3641_                           0.046678898436167 	(obj:1)
_var3643_                           0.143729196640473 	(obj:2)
_var3644_                           0.137553133741944 	(obj:0)
_var3646_                           0.018425722321567 	(obj:1)
_var3647_                           0.013291701972278 	(obj:3)
_var3649_                          0.0348900407597193 	(obj:1)
_var3652_                          0.0499732587052011 	(obj:1)
_var3653_                          0.0494213270075246 	(obj:2)
_var3656_                           0.126373719532634 	(obj:1)
_var3657_                           0.012577329566541 	(obj:2)
_var3661_                          0.0381424380331559 	(obj:4)
_var3662_                          0.0872702177516529 	(obj:2)
_var3663_                          0.0564624281320703 	(obj:2)
_var3664_                           0.130030244222686 	(obj:3)
_var3665_                          0.0278350512782514 	(obj:1)
_var3667_                          0.0135939581860772 	(obj:2)
_var3668_                         0.00655329569603036 	(obj:3)
